c NETGEN flow network generator (C version)
c  Problem 2 input parameters
c  ---------------------------
c   Random seed:            13502460
c   Number of nodes:              40
c   Source nodes:                  8
c   Sink nodes:                   32
c   Number of arcs:              141
c   Minimum arc cost:              1
c   Maximum arc cost:            100
c   Total supply:                205
c   Transshipment -
c     Sources:                     0
c     Sinks:                       0
c   Skeleton arcs -
c     With max cost:              30%
c     Capacitated:                40%
c   Minimum arc capacity:          1
c   Maximum arc capacity:         13
c
c  *** Minimum cost flow ***
c
p min 40 141
n 1 12
n 2 28
n 3 16
n 4 40
n 5 22
n 6 14
n 7 24
n 8 49
n 9 -12
n 10 -2
n 11 -3
n 12 -2
n 13 -24
n 14 -7
n 15 -10
n 16 -2
n 17 -6
n 18 -4
n 19 -8
n 20 -3
n 21 -4
n 22 -5
n 23 -6
n 24 -3
n 25 -2
n 26 -4
n 27 -4
n 28 -2
n 29 -2
n 30 -4
n 31 -4
n 32 -7
n 33 -21
n 34 -2
n 35 -10
n 36 -3
n 37 -10
n 38 -13
n 39 -5
n 40 -11
a 1 13 0 205 71
a 1 24 0 12 100
a 1 33 0 12 60
a 1 22 0 12 27
a 1 15 0 205 6
a 1 20 0 205 14
a 1 32 0 4 39
a 1 12 0 205 61
a 1 19 0 205 96
a 1 9 0 205 82
a 1 29 0 7 100
a 1 18 0 205 77
a 1 37 0 8 96
a 1 31 0 205 61
a 1 30 0 205 37
a 1 17 0 7 81
a 1 23 0 205 75
a 1 11 0 205 32
a 1 16 0 205 60
a 1 27 0 3 76
a 1 39 0 205 62
a 1 36 0 8 52
a 1 34 0 7 39
a 1 38 0 9 83
a 1 25 0 1 30
a 1 14 0 205 15
a 1 28 0 10 59
a 1 35 0 8 89
a 2 38 0 28 100
a 2 13 0 205 66
a 2 21 0 28 94
a 2 19 0 205 100
a 2 33 0 28 83
a 2 30 0 205 67
a 2 34 0 7 91
a 2 39 0 11 89
a 2 18 0 205 25
a 2 10 0 13 29
a 2 28 0 205 65
a 2 27 0 2 41
a 2 37 0 205 24
a 2 11 0 205 21
a 2 36 0 205 100
a 2 24 0 1 58
a 3 19 0 205 18
a 3 33 0 205 97
a 3 27 0 205 61
a 3 9 0 205 72
a 3 18 0 16 73
a 3 16 0 6 35
a 3 11 0 205 57
a 3 20 0 205 99
a 3 21 0 205 43
a 3 37 0 8 84
a 3 12 0 205 66
a 3 35 0 4 75
a 3 14 0 205 31
a 3 25 0 205 11
a 3 26 0 12 94
a 3 39 0 205 28
a 3 30 0 6 75
a 3 36 0 205 27
a 4 13 0 40 100
a 4 9 0 205 100
a 4 32 0 40 41
a 4 37 0 205 49
a 4 17 0 205 100
a 4 23 0 205 80
a 4 11 0 205 97
a 4 10 0 5 48
a 4 16 0 205 46
a 4 25 0 6 58
a 4 21 0 205 20
a 4 20 0 205 96
a 4 30 0 9 26
a 4 24 0 205 92
a 4 15 0 205 3
a 4 31 0 9 26
a 4 14 0 205 49
a 4 35 0 205 71
a 5 23 0 22 9
a 5 11 0 205 100
a 5 15 0 205 3
a 5 13 0 22 35
a 5 14 0 205 45
a 5 30 0 9 17
a 5 18 0 205 31
a 5 19 0 205 57
a 5 39 0 2 28
a 6 40 0 14 89
a 6 17 0 14 54
a 6 13 0 14 44
a 6 29 0 14 100
a 6 28 0 205 96
a 6 38 0 10 59
a 6 34 0 11 67
a 6 36 0 12 50
a 6 10 0 3 55
a 6 18 0 205 96
a 6 21 0 12 74
a 6 23 0 205 19
a 6 22 0 205 39
a 6 27 0 10 74
a 6 20 0 205 46
a 6 15 0 205 98
a 6 25 0 13 38
a 6 14 0 205 44
a 6 33 0 205 98
a 6 19 0 4 32
a 6 16 0 205 14
a 6 11 0 6 91
a 6 31 0 205 22
a 6 32 0 11 20
a 6 9 0 205 80
a 6 24 0 13 7
a 7 35 0 24 100
a 7 40 0 24 99
a 7 38 0 205 49
a 7 12 0 24 94
a 7 15 0 24 100
a 7 23 0 205 33
a 7 29 0 205 89
a 8 33 0 49 66
a 8 35 0 205 100
a 8 22 0 205 100
a 8 20 0 205 26
a 8 30 0 49 87
a 8 10 0 205 3
a 8 16 0 205 5
a 8 25 0 205 59
a 8 26 0 49 35
a 8 31 0 49 100
a 8 34 0 49 44
a 8 36 0 49 100
a 8 39 0 205 56
a 8 37 0 1 62
a 8 28 0 3 22
a 8 21 0 205 18
a 8 23 0 205 58
a 8 19 0 205 37
a 8 11 0 205 60
